NAME : xqf10
COMMENT : Bonn VLSI data set with 10 points
COMMENT : Uni Bonn, Research Institute for Discrete Math
COMMENT : Contributed by Andre Rohe
TYPE : TSP
DIMENSION : 10
EDGE_WEIGHT_TYPE : EUC_2D
NODE_COORD_SECTION
1 0 13
2 0 26
3 0 27
4 0 39
5 2 0
6 5 13
7 5 19
8 5 25
9 5 31
10 5 37
11 13 13
12 14 14
13 13 13
14 15 15
15 16 16
EOF
